proyfinal/src/viki/013/experimentInOfficeAgust.take6.output/5af26417-276c-4c87-a6c2-4b9e94cd1928.als.dat
{'cnf.clauses': '118081',
 'cnf.totvars': '69608',
 'conflict literals': '2',
 'conflicts': '3',
 'decisions': '2204',
 'memused.mb': '14.23',
 'outcome': 'UNSAT',
 'propagations': '24065',
 'restarts': '1',
 'solver.msecs': 26,
 'task.msecs': 105}
