proyfinal/src/viki/013/experimentInOfficeAgust.take6.output/5af26417-276c-4c87-a6c2-4b9e94cd1928.als.out
Reading from standard input... Use '--help' for help.
============================[ Problem Statistics ]=============================
|                                                                             |
|  Number of variables:         69608                                         |
|  Number of clauses:          118081                                         |
|  Parse time:                   0.02 s                                       |
|                                                                             |
============================[ Search Statistics ]==============================
| Conflicts |          ORIGINAL         |          LEARNT          | Progress |
|           |    Vars  Clauses Literals |    Limit  Clauses Lit/Cl |          |
===============================================================================
===============================================================================
restarts              : 1
conflicts             : 3              (115 /sec)
decisions             : 2204           (0.00 % random) (84406 /sec)
propagations          : 24065          (921607 /sec)
conflict literals     : 2              (0.00 % deleted)
Memory used           : 14.23 MB
CPU time              : 0.026112 s

UNSATISFIABLE
